letting n =  10
letting blocks =  [[1, 2], [1, 3], [1, 5], [1, 7], [1, 8], [1, 10], [2, 5], [2, 6], [2, 7], [2, 9], [3, 1], [3, 2], [3, 4], [3, 5], [3, 9], [4, 1], [4, 4], [4, 7], [4, 8], [4, 9], [4, 10], [5, 1], [5, 2], [5, 3], [5, 5], [5, 6], [6, 1], [6, 3], [6, 5], [6, 7], [6, 8], [6, 9], [7, 2], [7, 4], [7, 6], [7, 7], [7, 10], [8, 1], [8, 2], [8, 3], [8, 4], [8, 5], [8, 8], [9, 2], [9, 3], [9, 4], [9, 6], [9, 9], [10, 1], [10, 3], [10, 4], [10, 7], [10, 9], [10, 10]]
